\ Model DARP_copy
\ LP format - for model browsing. Use MPS format to capture full model detail.
\ Signature: 0x5af67735cdbd1410
Maximize
 
Subject To
 start_battery_0: battery[0,0] = 2.2894
Bounds
 battery[0,0] >= 20
End
